17	4
18	25	11	17	
0	0	0	0	0	3	2	3	4	
7	0	0	10	0	3	10	17	17	
8	0	8	0	0	3	6	7	14	
9	8	0	0	0	3	5	12	17	
3	0	3	0	0	3	14	17	17	
150	0	0	10	0	3	15	17	17	
100	0	0	1	0	3	8	13	15	
150	0	0	0	3	3	9	11	17	
200	0	0	1	0	3	17	17	17	
50	6	0	0	0	3	11	15	16	
125	0	0	10	0	3	17	17	17	
200	0	8	0	0	3	14	17	17	
4	0	7	0	0	3	16	17	17	
10	0	7	0	0	2	17	17	
4	0	10	0	0	2	17	17	
4	0	0	0	6	2	17	17	
0	0	0	0	0	0	
